job_count = 16 ;
duration = [|38, 17, 13, 8|20, 23, 4, 4|33, 4, 2, 5|6, 23, 10, 3|20, 19, 12, 8|6, 12, 15, 6|25, 6, 2, 5|35, 8, 12, 6|20, 29, 5, 6|4, 22, 6, 4|10, 11, 12, 2|23, 12, 3, 2|26, 27, 11, 2|30, 28, 15, 5|15, 23, 11, 3|18, 9, 10, 2|] ;
machine_count = 4 ;
cost = [|15, 22, 54, 52|15, 24, 30, 45|15, 26, 44, 48|17, 23, 50, 62|12, 30, 51, 77|10, 39, 38, 76|12, 33, 35, 54|14, 24, 51, 53|13, 34, 42, 65|14, 31, 42, 67|17, 36, 40, 50|13, 29, 54, 41|17, 31, 56, 50|12, 23, 53, 65|19, 39, 58, 77|16, 36, 50, 43|] ;
deadline = [33, 33, 33, 33, 33, 33, 33, 33, 33, 33, 33, 33, 33, 33, 33, 33] ;
release = [0, 0, 0, 0, 0, 0, 0, 0, 0, 0, 0, 0, 0, 0, 0, 0] ;
resource = [|6, 6, 6, 6|1, 1, 1, 1|2, 2, 2, 2|4, 4, 4, 4|7, 7, 7, 7|4, 4, 4, 4|6, 6, 6, 6|2, 2, 2, 2|9, 9, 9, 9|3, 3, 3, 3|5, 5, 5, 5|4, 4, 4, 4|5, 5, 5, 5|7, 7, 7, 7|7, 7, 7, 7|9, 9, 9, 9|] ;
capacities = [10, 10, 10, 10] ;
